50
    1    34    37
    2     1     3
    3    29    25
    4    23    22
    5    19    15
    6    19    19
    7     5     4
    8     3     7
    9    27    26
   10    17    17
   11     6     7
   12    19    18
   13     3     3
   14    19    17
   15    40    44
   16    14    14
   17    12     8
   18    39    43
   19    38    38
   20    12    15
   21    16    20
   22    43    45
   23     6     5
   24    32    32
   25    39    38
   26    22    21
   27    38    35
   28    10    15
   29    38    33
   30    20    16
   31     2     3
   32    29    29
   33    30    27
   34    51    48
   35     4     1
   36    14    10
   37    32    29
   38    16    14
   39    20    21
   40     7     6
   41    22    26
   42    50    45
   43    27    31
   44    42    43
   45    13    10
   46     6     6
   47    33    29
   48     6     5
   49    40    38
   50    32    33
730
